DIMENSION: 130
86
69
64
124
129
61
109
76
11
5
45
16
128
105
62
28
115
112
1
41
39
71
130
2
54
35
4
42
51
60
120
49
58
53
38
116
100
43
107
127
104
34
17
31
27
19
15
29
24
95
79
106
44
40
47
23
37
22
93
118
20
80
46
33
21
18
8
108
126
114
3
50
117
83
30
59
90
125
85
66
78
121
13
67
96
14
10
122
55
102
6
91
72
92
99
73
74
75
52
9
57
56
65
82
101
123
111
103
87
12
81
77
94
89
110
98
113
119
84
36
32
25
48
68
63
70
97
7
26
88
